param Riesgos:=
0[1]	2		3		5	
1[1]	1		3		4	
2[1]	3		5	
3[1]	2		5		6	
4[1]
5[1]	1		4		5	
6[1]	2		4	
7[1]	3		4	
8[1]	3		4	
9[1]	5		6	
10[1]	1		2		4	
11[1]
12[1]
13[1]	2		4		5	
14[1]	6	
0[2]	5	
1[2]	1		5		6	
2[2]	5		6	
3[2]	2	
0[3]	2	
1[3]	1		5		6	
2[3]	4	
3[3]	1		2	
4[3]	4		5		6	
5[3]	2		3		5	
6[3]	2		5	
7[3]
8[3]	1		4	
9[3]
10[3]	3		4		5	
